p cnf 36 447 
21 0
30 0
27 0
-1 0
6 0
17 0
18 0
-29 0
25 26 0
24 19 0
9 8 35 0
20 23 13 0
3 36 0
-3 -36 0
-36 -3 0
-31 0
-32 0
4 0
15 0
-34 0
11 0
-22 0
7 0
-25 -24 31 31 33 -21 0
-25 -24 31 31 -33 21 0
-25 -19 31 34 33 -21 0
-25 -19 31 34 -33 21 0
-26 -24 34 31 33 -21 0
-26 -24 34 31 -33 21 0
-26 -19 34 34 33 -21 0
-26 -19 34 34 -33 21 0
-25 -24 31 -31 33 -30 0
-25 -24 31 -31 -33 30 0
-25 -19 31 -34 33 -30 0
-25 -19 31 -34 -33 30 0
-26 -24 34 -31 33 -30 0
-26 -24 34 -31 -33 30 0
-26 -19 34 -34 33 -30 0
-26 -19 34 -34 -33 30 0
-25 -24 -31 31 33 -27 0
-25 -24 -31 31 -33 27 0
-25 -19 -31 34 33 -27 0
-25 -19 -31 34 -33 27 0
-26 -24 -34 31 33 -27 0
-26 -24 -34 31 -33 27 0
-26 -19 -34 34 33 -27 0
-26 -19 -34 34 -33 27 0
-25 -24 -31 -31 33 -1 0
-25 -24 -31 -31 -33 1 0
-25 -19 -31 -34 33 -1 0
-25 -19 -31 -34 -33 1 0
-26 -24 -34 -31 33 -1 0
-26 -24 -34 -31 -33 1 0
-26 -19 -34 -34 33 -1 0
-26 -19 -34 -34 -33 1 0
-25 -24 32 32 5 -21 0
-25 -24 32 32 -5 21 0
-25 -19 32 11 5 -21 0
-25 -19 32 11 -5 21 0
-26 -24 11 32 5 -21 0
-26 -24 11 32 -5 21 0
-26 -19 11 11 5 -21 0
-26 -19 11 11 -5 21 0
-25 -24 32 -32 5 -30 0
-25 -24 32 -32 -5 30 0
-25 -19 32 -11 5 -30 0
-25 -19 32 -11 -5 30 0
-26 -24 11 -32 5 -30 0
-26 -24 11 -32 -5 30 0
-26 -19 11 -11 5 -30 0
-26 -19 11 -11 -5 30 0
-25 -24 -32 32 5 -27 0
-25 -24 -32 32 -5 27 0
-25 -19 -32 11 5 -27 0
-25 -19 -32 11 -5 27 0
-26 -24 -11 32 5 -27 0
-26 -24 -11 32 -5 27 0
-26 -19 -11 11 5 -27 0
-26 -19 -11 11 -5 27 0
-25 -24 -32 -32 5 -1 0
-25 -24 -32 -32 -5 1 0
-25 -19 -32 -11 5 -1 0
-25 -19 -32 -11 -5 1 0
-26 -24 -11 -32 5 -1 0
-26 -24 -11 -32 -5 1 0
-26 -19 -11 -11 5 -1 0
-26 -19 -11 -11 -5 1 0
-25 -24 4 4 16 -21 0
-25 -24 4 4 -16 21 0
-25 -19 4 22 16 -21 0
-25 -19 4 22 -16 21 0
-26 -24 22 4 16 -21 0
-26 -24 22 4 -16 21 0
-26 -19 22 22 16 -21 0
-26 -19 22 22 -16 21 0
-25 -24 4 -4 16 -30 0
-25 -24 4 -4 -16 30 0
-25 -19 4 -22 16 -30 0
-25 -19 4 -22 -16 30 0
-26 -24 22 -4 16 -30 0
-26 -24 22 -4 -16 30 0
-26 -19 22 -22 16 -30 0
-26 -19 22 -22 -16 30 0
-25 -24 -4 4 16 -27 0
-25 -24 -4 4 -16 27 0
-25 -19 -4 22 16 -27 0
-25 -19 -4 22 -16 27 0
-26 -24 -22 4 16 -27 0
-26 -24 -22 4 -16 27 0
-26 -19 -22 22 16 -27 0
-26 -19 -22 22 -16 27 0
-25 -24 -4 -4 16 -1 0
-25 -24 -4 -4 -16 1 0
-25 -19 -4 -22 16 -1 0
-25 -19 -4 -22 -16 1 0
-26 -24 -22 -4 16 -1 0
-26 -24 -22 -4 -16 1 0
-26 -19 -22 -22 16 -1 0
-26 -19 -22 -22 -16 1 0
-25 -24 15 15 28 -21 0
-25 -24 15 15 -28 21 0
-25 -19 15 7 28 -21 0
-25 -19 15 7 -28 21 0
-26 -24 7 15 28 -21 0
-26 -24 7 15 -28 21 0
-26 -19 7 7 28 -21 0
-26 -19 7 7 -28 21 0
-25 -24 15 -15 28 -30 0
-25 -24 15 -15 -28 30 0
-25 -19 15 -7 28 -30 0
-25 -19 15 -7 -28 30 0
-26 -24 7 -15 28 -30 0
-26 -24 7 -15 -28 30 0
-26 -19 7 -7 28 -30 0
-26 -19 7 -7 -28 30 0
-25 -24 -15 15 28 -27 0
-25 -24 -15 15 -28 27 0
-25 -19 -15 7 28 -27 0
-25 -19 -15 7 -28 27 0
-26 -24 -7 15 28 -27 0
-26 -24 -7 15 -28 27 0
-26 -19 -7 7 28 -27 0
-26 -19 -7 7 -28 27 0
-25 -24 -15 -15 28 -1 0
-25 -24 -15 -15 -28 1 0
-25 -19 -15 -7 28 -1 0
-25 -19 -15 -7 -28 1 0
-26 -24 -7 -15 28 -1 0
-26 -24 -7 -15 -28 1 0
-26 -19 -7 -7 28 -1 0
-26 -19 -7 -7 -28 1 0
-9 -20 31 31 10 -6 0
-9 -20 31 31 -10 6 0
-9 -23 31 34 10 -6 0
-9 -23 31 34 -10 6 0
-9 -13 31 33 10 -6 0
-9 -13 31 33 -10 6 0
-8 -20 34 31 10 -6 0
-8 -20 34 31 -10 6 0
-8 -23 34 34 10 -6 0
-8 -23 34 34 -10 6 0
-8 -13 34 33 10 -6 0
-8 -13 34 33 -10 6 0
-35 -20 33 31 10 -6 0
-35 -20 33 31 -10 6 0
-35 -23 33 34 10 -6 0
-35 -23 33 34 -10 6 0
-35 -13 33 33 10 -6 0
-35 -13 33 33 -10 6 0
-9 -20 31 -31 10 -17 0
-9 -20 31 -31 -10 17 0
-9 -23 31 -34 10 -17 0
-9 -23 31 -34 -10 17 0
-9 -13 31 -33 10 -17 0
-9 -13 31 -33 -10 17 0
-8 -20 34 -31 10 -17 0
-8 -20 34 -31 -10 17 0
-8 -23 34 -34 10 -17 0
-8 -23 34 -34 -10 17 0
-8 -13 34 -33 10 -17 0
-8 -13 34 -33 -10 17 0
-35 -20 33 -31 10 -17 0
-35 -20 33 -31 -10 17 0
-35 -23 33 -34 10 -17 0
-35 -23 33 -34 -10 17 0
-35 -13 33 -33 10 -17 0
-35 -13 33 -33 -10 17 0
-9 -20 -31 31 10 -18 0
-9 -20 -31 31 -10 18 0
-9 -23 -31 34 10 -18 0
-9 -23 -31 34 -10 18 0
-9 -13 -31 33 10 -18 0
-9 -13 -31 33 -10 18 0
-8 -20 -34 31 10 -18 0
-8 -20 -34 31 -10 18 0
-8 -23 -34 34 10 -18 0
-8 -23 -34 34 -10 18 0
-8 -13 -34 33 10 -18 0
-8 -13 -34 33 -10 18 0
-35 -20 -33 31 10 -18 0
-35 -20 -33 31 -10 18 0
-35 -23 -33 34 10 -18 0
-35 -23 -33 34 -10 18 0
-35 -13 -33 33 10 -18 0
-35 -13 -33 33 -10 18 0
-9 -20 -31 -31 10 -29 0
-9 -20 -31 -31 -10 29 0
-9 -23 -31 -34 10 -29 0
-9 -23 -31 -34 -10 29 0
-9 -13 -31 -33 10 -29 0
-9 -13 -31 -33 -10 29 0
-8 -20 -34 -31 10 -29 0
-8 -20 -34 -31 -10 29 0
-8 -23 -34 -34 10 -29 0
-8 -23 -34 -34 -10 29 0
-8 -13 -34 -33 10 -29 0
-8 -13 -34 -33 -10 29 0
-35 -20 -33 -31 10 -29 0
-35 -20 -33 -31 -10 29 0
-35 -23 -33 -34 10 -29 0
-35 -23 -33 -34 -10 29 0
-35 -13 -33 -33 10 -29 0
-35 -13 -33 -33 -10 29 0
-9 -20 32 32 12 -6 0
-9 -20 32 32 -12 6 0
-9 -23 32 11 12 -6 0
-9 -23 32 11 -12 6 0
-9 -13 32 5 12 -6 0
-9 -13 32 5 -12 6 0
-8 -20 11 32 12 -6 0
-8 -20 11 32 -12 6 0
-8 -23 11 11 12 -6 0
-8 -23 11 11 -12 6 0
-8 -13 11 5 12 -6 0
-8 -13 11 5 -12 6 0
-35 -20 5 32 12 -6 0
-35 -20 5 32 -12 6 0
-35 -23 5 11 12 -6 0
-35 -23 5 11 -12 6 0
-35 -13 5 5 12 -6 0
-35 -13 5 5 -12 6 0
-9 -20 32 -32 12 -17 0
-9 -20 32 -32 -12 17 0
-9 -23 32 -11 12 -17 0
-9 -23 32 -11 -12 17 0
-9 -13 32 -5 12 -17 0
-9 -13 32 -5 -12 17 0
-8 -20 11 -32 12 -17 0
-8 -20 11 -32 -12 17 0
-8 -23 11 -11 12 -17 0
-8 -23 11 -11 -12 17 0
-8 -13 11 -5 12 -17 0
-8 -13 11 -5 -12 17 0
-35 -20 5 -32 12 -17 0
-35 -20 5 -32 -12 17 0
-35 -23 5 -11 12 -17 0
-35 -23 5 -11 -12 17 0
-35 -13 5 -5 12 -17 0
-35 -13 5 -5 -12 17 0
-9 -20 -32 32 12 -18 0
-9 -20 -32 32 -12 18 0
-9 -23 -32 11 12 -18 0
-9 -23 -32 11 -12 18 0
-9 -13 -32 5 12 -18 0
-9 -13 -32 5 -12 18 0
-8 -20 -11 32 12 -18 0
-8 -20 -11 32 -12 18 0
-8 -23 -11 11 12 -18 0
-8 -23 -11 11 -12 18 0
-8 -13 -11 5 12 -18 0
-8 -13 -11 5 -12 18 0
-35 -20 -5 32 12 -18 0
-35 -20 -5 32 -12 18 0
-35 -23 -5 11 12 -18 0
-35 -23 -5 11 -12 18 0
-35 -13 -5 5 12 -18 0
-35 -13 -5 5 -12 18 0
-9 -20 -32 -32 12 -29 0
-9 -20 -32 -32 -12 29 0
-9 -23 -32 -11 12 -29 0
-9 -23 -32 -11 -12 29 0
-9 -13 -32 -5 12 -29 0
-9 -13 -32 -5 -12 29 0
-8 -20 -11 -32 12 -29 0
-8 -20 -11 -32 -12 29 0
-8 -23 -11 -11 12 -29 0
-8 -23 -11 -11 -12 29 0
-8 -13 -11 -5 12 -29 0
-8 -13 -11 -5 -12 29 0
-35 -20 -5 -32 12 -29 0
-35 -20 -5 -32 -12 29 0
-35 -23 -5 -11 12 -29 0
-35 -23 -5 -11 -12 29 0
-35 -13 -5 -5 12 -29 0
-35 -13 -5 -5 -12 29 0
-9 -20 4 4 2 -6 0
-9 -20 4 4 -2 6 0
-9 -23 4 22 2 -6 0
-9 -23 4 22 -2 6 0
-9 -13 4 16 2 -6 0
-9 -13 4 16 -2 6 0
-8 -20 22 4 2 -6 0
-8 -20 22 4 -2 6 0
-8 -23 22 22 2 -6 0
-8 -23 22 22 -2 6 0
-8 -13 22 16 2 -6 0
-8 -13 22 16 -2 6 0
-35 -20 16 4 2 -6 0
-35 -20 16 4 -2 6 0
-35 -23 16 22 2 -6 0
-35 -23 16 22 -2 6 0
-35 -13 16 16 2 -6 0
-35 -13 16 16 -2 6 0
-9 -20 4 -4 2 -17 0
-9 -20 4 -4 -2 17 0
-9 -23 4 -22 2 -17 0
-9 -23 4 -22 -2 17 0
-9 -13 4 -16 2 -17 0
-9 -13 4 -16 -2 17 0
-8 -20 22 -4 2 -17 0
-8 -20 22 -4 -2 17 0
-8 -23 22 -22 2 -17 0
-8 -23 22 -22 -2 17 0
-8 -13 22 -16 2 -17 0
-8 -13 22 -16 -2 17 0
-35 -20 16 -4 2 -17 0
-35 -20 16 -4 -2 17 0
-35 -23 16 -22 2 -17 0
-35 -23 16 -22 -2 17 0
-35 -13 16 -16 2 -17 0
-35 -13 16 -16 -2 17 0
-9 -20 -4 4 2 -18 0
-9 -20 -4 4 -2 18 0
-9 -23 -4 22 2 -18 0
-9 -23 -4 22 -2 18 0
-9 -13 -4 16 2 -18 0
-9 -13 -4 16 -2 18 0
-8 -20 -22 4 2 -18 0
-8 -20 -22 4 -2 18 0
-8 -23 -22 22 2 -18 0
-8 -23 -22 22 -2 18 0
-8 -13 -22 16 2 -18 0
-8 -13 -22 16 -2 18 0
-35 -20 -16 4 2 -18 0
-35 -20 -16 4 -2 18 0
-35 -23 -16 22 2 -18 0
-35 -23 -16 22 -2 18 0
-35 -13 -16 16 2 -18 0
-35 -13 -16 16 -2 18 0
-9 -20 -4 -4 2 -29 0
-9 -20 -4 -4 -2 29 0
-9 -23 -4 -22 2 -29 0
-9 -23 -4 -22 -2 29 0
-9 -13 -4 -16 2 -29 0
-9 -13 -4 -16 -2 29 0
-8 -20 -22 -4 2 -29 0
-8 -20 -22 -4 -2 29 0
-8 -23 -22 -22 2 -29 0
-8 -23 -22 -22 -2 29 0
-8 -13 -22 -16 2 -29 0
-8 -13 -22 -16 -2 29 0
-35 -20 -16 -4 2 -29 0
-35 -20 -16 -4 -2 29 0
-35 -23 -16 -22 2 -29 0
-35 -23 -16 -22 -2 29 0
-35 -13 -16 -16 2 -29 0
-35 -13 -16 -16 -2 29 0
-9 -20 15 15 14 -6 0
-9 -20 15 15 -14 6 0
-9 -23 15 7 14 -6 0
-9 -23 15 7 -14 6 0
-9 -13 15 28 14 -6 0
-9 -13 15 28 -14 6 0
-8 -20 7 15 14 -6 0
-8 -20 7 15 -14 6 0
-8 -23 7 7 14 -6 0
-8 -23 7 7 -14 6 0
-8 -13 7 28 14 -6 0
-8 -13 7 28 -14 6 0
-35 -20 28 15 14 -6 0
-35 -20 28 15 -14 6 0
-35 -23 28 7 14 -6 0
-35 -23 28 7 -14 6 0
-35 -13 28 28 14 -6 0
-35 -13 28 28 -14 6 0
-9 -20 15 -15 14 -17 0
-9 -20 15 -15 -14 17 0
-9 -23 15 -7 14 -17 0
-9 -23 15 -7 -14 17 0
-9 -13 15 -28 14 -17 0
-9 -13 15 -28 -14 17 0
-8 -20 7 -15 14 -17 0
-8 -20 7 -15 -14 17 0
-8 -23 7 -7 14 -17 0
-8 -23 7 -7 -14 17 0
-8 -13 7 -28 14 -17 0
-8 -13 7 -28 -14 17 0
-35 -20 28 -15 14 -17 0
-35 -20 28 -15 -14 17 0
-35 -23 28 -7 14 -17 0
-35 -23 28 -7 -14 17 0
-35 -13 28 -28 14 -17 0
-35 -13 28 -28 -14 17 0
-9 -20 -15 15 14 -18 0
-9 -20 -15 15 -14 18 0
-9 -23 -15 7 14 -18 0
-9 -23 -15 7 -14 18 0
-9 -13 -15 28 14 -18 0
-9 -13 -15 28 -14 18 0
-8 -20 -7 15 14 -18 0
-8 -20 -7 15 -14 18 0
-8 -23 -7 7 14 -18 0
-8 -23 -7 7 -14 18 0
-8 -13 -7 28 14 -18 0
-8 -13 -7 28 -14 18 0
-35 -20 -28 15 14 -18 0
-35 -20 -28 15 -14 18 0
-35 -23 -28 7 14 -18 0
-35 -23 -28 7 -14 18 0
-35 -13 -28 28 14 -18 0
-35 -13 -28 28 -14 18 0
-9 -20 -15 -15 14 -29 0
-9 -20 -15 -15 -14 29 0
-9 -23 -15 -7 14 -29 0
-9 -23 -15 -7 -14 29 0
-9 -13 -15 -28 14 -29 0
-9 -13 -15 -28 -14 29 0
-8 -20 -7 -15 14 -29 0
-8 -20 -7 -15 -14 29 0
-8 -23 -7 -7 14 -29 0
-8 -23 -7 -7 -14 29 0
-8 -13 -7 -28 14 -29 0
-8 -13 -7 -28 -14 29 0
-35 -20 -28 -15 14 -29 0
-35 -20 -28 -15 -14 29 0
-35 -23 -28 -7 14 -29 0
-35 -23 -28 -7 -14 29 0
-35 -13 -28 -28 14 -29 0
-35 -13 -28 -28 -14 29 0
-3 -33 0
-3 -5 0
-3 -16 0
-3 28 0
-36 -10 0
-36 -12 0
-36 -2 0
-36 14 0
